%nproc=4
%mem=20000MB
#P b3lyp/STO-3G TD(NStates=6) SCFcyc=500 charge NoSymm

Gaussian template charges

 0 1
C    -4.041872   -0.525126    0.134878
C    -4.237312    0.909078   -0.031401
C    -3.005916    1.683573   -0.145249
C    -1.761354    1.108895   -0.099604
C    -1.590088   -0.307133    0.064959
C    -2.790153   -1.084358    0.178566
O    -5.378815    1.439276   -0.073635
C    -0.341773   -0.965051    0.120391
C     0.964558   -0.497037    0.041483
C     2.122082   -1.377028    0.124838
O     2.251439   -2.605141    0.267906
N     3.212196   -0.481958   -0.000733
C     2.694526    0.803569   -0.143611
N     1.392705    0.829876   -0.123309
C     3.564804    2.015397   -0.302731
C     4.589073   -0.914507    0.025710
H    -4.936731   -1.138355    0.223578
H    -3.118459    2.759239   -0.270573
H    -0.869220    1.721409   -0.188171
H    -2.687759   -2.163401    0.304472
H    -0.388201   -2.047730    0.249401
H     4.629691    1.761277   -0.291793
H     3.377193    2.734107    0.504776
H     3.345667    2.526531   -1.248526
H     4.570268   -2.000976    0.154672
H     5.142939   -0.467027    0.861936
H     5.111051   -0.676916   -0.910969

 -3.9192  -2.9835  -2.4057    0.10

--link1--
%nproc=4
%mem=20000MB
#P b3lyp/STO-3G TD(NStates=6) SCFcyc=500 charge NoSymm

Gaussian template charges

 0 1
C    -4.041872   -0.525126    0.134878
C    -4.237312    0.909078   -0.031401
C    -3.005916    1.683573   -0.145249
C    -1.761354    1.108895   -0.099604
C    -1.590088   -0.307133    0.064959
C    -2.790153   -1.084358    0.178566
O    -5.378815    1.439276   -0.073635
C    -0.341773   -0.965051    0.120391
C     0.964558   -0.497037    0.041483
C     2.122082   -1.377028    0.124838
O     2.251439   -2.605141    0.267906
N     3.212196   -0.481958   -0.000733
C     2.694526    0.803569   -0.143611
N     1.392705    0.829876   -0.123309
C     3.564804    2.015397   -0.302731
C     4.589073   -0.914507    0.025710
H    -4.936731   -1.138355    0.223578
H    -3.118459    2.759239   -0.270573
H    -0.869220    1.721409   -0.188171
H    -2.687759   -2.163401    0.304472
H    -0.388201   -2.047730    0.249401
H     4.629691    1.761277   -0.291793
H     3.377193    2.734107    0.504776
H     3.345667    2.526531   -1.248526
H     4.570268   -2.000976    0.154672
H     5.142939   -0.467027    0.861936
H     5.111051   -0.676916   -0.910969

 -1.9406  -2.9226  -2.5526    0.10

--link1--
%nproc=4
%mem=20000MB
#P b3lyp/STO-3G TD(NStates=6) SCFcyc=500 charge NoSymm

Gaussian template charges

 0 1
C    -4.041872   -0.525126    0.134878
C    -4.237312    0.909078   -0.031401
C    -3.005916    1.683573   -0.145249
C    -1.761354    1.108895   -0.099604
C    -1.590088   -0.307133    0.064959
C    -2.790153   -1.084358    0.178566
O    -5.378815    1.439276   -0.073635
C    -0.341773   -0.965051    0.120391
C     0.964558   -0.497037    0.041483
C     2.122082   -1.377028    0.124838
O     2.251439   -2.605141    0.267906
N     3.212196   -0.481958   -0.000733
C     2.694526    0.803569   -0.143611
N     1.392705    0.829876   -0.123309
C     3.564804    2.015397   -0.302731
C     4.589073   -0.914507    0.025710
H    -4.936731   -1.138355    0.223578
H    -3.118459    2.759239   -0.270573
H    -0.869220    1.721409   -0.188171
H    -2.687759   -2.163401    0.304472
H    -0.388201   -2.047730    0.249401
H     4.629691    1.761277   -0.291793
H     3.377193    2.734107    0.504776
H     3.345667    2.526531   -1.248526
H     4.570268   -2.000976    0.154672
H     5.142939   -0.467027    0.861936
H     5.111051   -0.676916   -0.910969

 -7.5449   3.0666   1.3053    0.10

--link1--
%nproc=4
%mem=20000MB
#P b3lyp/STO-3G TD(NStates=6) SCFcyc=500 charge NoSymm

Gaussian template charges

 0 1
C    -4.041872   -0.525126    0.134878
C    -4.237312    0.909078   -0.031401
C    -3.005916    1.683573   -0.145249
C    -1.761354    1.108895   -0.099604
C    -1.590088   -0.307133    0.064959
C    -2.790153   -1.084358    0.178566
O    -5.378815    1.439276   -0.073635
C    -0.341773   -0.965051    0.120391
C     0.964558   -0.497037    0.041483
C     2.122082   -1.377028    0.124838
O     2.251439   -2.605141    0.267906
N     3.212196   -0.481958   -0.000733
C     2.694526    0.803569   -0.143611
N     1.392705    0.829876   -0.123309
C     3.564804    2.015397   -0.302731
C     4.589073   -0.914507    0.025710
H    -4.936731   -1.138355    0.223578
H    -3.118459    2.759239   -0.270573
H    -0.869220    1.721409   -0.188171
H    -2.687759   -2.163401    0.304472
H    -0.388201   -2.047730    0.249401
H     4.629691    1.761277   -0.291793
H     3.377193    2.734107    0.504776
H     3.345667    2.526531   -1.248526
H     4.570268   -2.000976    0.154672
H     5.142939   -0.467027    0.861936
H     5.111051   -0.676916   -0.910969

 -7.5781  -0.1571   1.2889    0.10

--link1--
%nproc=4
%mem=20000MB
#P b3lyp/STO-3G TD(NStates=6) SCFcyc=500 charge NoSymm

Gaussian template charges

 0 1
C    -4.041872   -0.525126    0.134878
C    -4.237312    0.909078   -0.031401
C    -3.005916    1.683573   -0.145249
C    -1.761354    1.108895   -0.099604
C    -1.590088   -0.307133    0.064959
C    -2.790153   -1.084358    0.178566
O    -5.378815    1.439276   -0.073635
C    -0.341773   -0.965051    0.120391
C     0.964558   -0.497037    0.041483
C     2.122082   -1.377028    0.124838
O     2.251439   -2.605141    0.267906
N     3.212196   -0.481958   -0.000733
C     2.694526    0.803569   -0.143611
N     1.392705    0.829876   -0.123309
C     3.564804    2.015397   -0.302731
C     4.589073   -0.914507    0.025710
H    -4.936731   -1.138355    0.223578
H    -3.118459    2.759239   -0.270573
H    -0.869220    1.721409   -0.188171
H    -2.687759   -2.163401    0.304472
H    -0.388201   -2.047730    0.249401
H     4.629691    1.761277   -0.291793
H     3.377193    2.734107    0.504776
H     3.345667    2.526531   -1.248526
H     4.570268   -2.000976    0.154672
H     5.142939   -0.467027    0.861936
H     5.111051   -0.676916   -0.910969

 -6.2194   4.0329  -1.4183    0.10

--link1--
%nproc=4
%mem=20000MB
#P b3lyp/STO-3G TD(NStates=6) SCFcyc=500 charge NoSymm

Gaussian template charges

 0 1
C    -4.041872   -0.525126    0.134878
C    -4.237312    0.909078   -0.031401
C    -3.005916    1.683573   -0.145249
C    -1.761354    1.108895   -0.099604
C    -1.590088   -0.307133    0.064959
C    -2.790153   -1.084358    0.178566
O    -5.378815    1.439276   -0.073635
C    -0.341773   -0.965051    0.120391
C     0.964558   -0.497037    0.041483
C     2.122082   -1.377028    0.124838
O     2.251439   -2.605141    0.267906
N     3.212196   -0.481958   -0.000733
C     2.694526    0.803569   -0.143611
N     1.392705    0.829876   -0.123309
C     3.564804    2.015397   -0.302731
C     4.589073   -0.914507    0.025710
H    -4.936731   -1.138355    0.223578
H    -3.118459    2.759239   -0.270573
H    -0.869220    1.721409   -0.188171
H    -2.687759   -2.163401    0.304472
H    -0.388201   -2.047730    0.249401
H     4.629691    1.761277   -0.291793
H     3.377193    2.734107    0.504776
H     3.345667    2.526531   -1.248526
H     4.570268   -2.000976    0.154672
H     5.142939   -0.467027    0.861936
H     5.111051   -0.676916   -0.910969

 -8.0964   1.4537  -1.4361    0.10

--link1--
%nproc=4
%mem=20000MB
#P b3lyp/STO-3G TD(NStates=6) SCFcyc=500 charge NoSymm

Gaussian template charges

 0 1
C    -4.041872   -0.525126    0.134878
C    -4.237312    0.909078   -0.031401
C    -3.005916    1.683573   -0.145249
C    -1.761354    1.108895   -0.099604
C    -1.590088   -0.307133    0.064959
C    -2.790153   -1.084358    0.178566
O    -5.378815    1.439276   -0.073635
C    -0.341773   -0.965051    0.120391
C     0.964558   -0.497037    0.041483
C     2.122082   -1.377028    0.124838
O     2.251439   -2.605141    0.267906
N     3.212196   -0.481958   -0.000733
C     2.694526    0.803569   -0.143611
N     1.392705    0.829876   -0.123309
C     3.564804    2.015397   -0.302731
C     4.589073   -0.914507    0.025710
H    -4.936731   -1.138355    0.223578
H    -3.118459    2.759239   -0.270573
H    -0.869220    1.721409   -0.188171
H    -2.687759   -2.163401    0.304472
H    -0.388201   -2.047730    0.249401
H     4.629691    1.761277   -0.291793
H     3.377193    2.734107    0.504776
H     3.345667    2.526531   -1.248526
H     4.570268   -2.000976    0.154672
H     5.142939   -0.467027    0.861936
H     5.111051   -0.676916   -0.910969

 -5.9407   3.1993   2.3406    0.10

--link1--
%nproc=4
%mem=20000MB
#P b3lyp/STO-3G TD(NStates=6) SCFcyc=500 charge NoSymm

Gaussian template charges

 0 1
C    -4.041872   -0.525126    0.134878
C    -4.237312    0.909078   -0.031401
C    -3.005916    1.683573   -0.145249
C    -1.761354    1.108895   -0.099604
C    -1.590088   -0.307133    0.064959
C    -2.790153   -1.084358    0.178566
O    -5.378815    1.439276   -0.073635
C    -0.341773   -0.965051    0.120391
C     0.964558   -0.497037    0.041483
C     2.122082   -1.377028    0.124838
O     2.251439   -2.605141    0.267906
N     3.212196   -0.481958   -0.000733
C     2.694526    0.803569   -0.143611
N     1.392705    0.829876   -0.123309
C     3.564804    2.015397   -0.302731
C     4.589073   -0.914507    0.025710
H    -4.936731   -1.138355    0.223578
H    -3.118459    2.759239   -0.270573
H    -0.869220    1.721409   -0.188171
H    -2.687759   -2.163401    0.304472
H    -0.388201   -2.047730    0.249401
H     4.629691    1.761277   -0.291793
H     3.377193    2.734107    0.504776
H     3.345667    2.526531   -1.248526
H     4.570268   -2.000976    0.154672
H     5.142939   -0.467027    0.861936
H     5.111051   -0.676916   -0.910969

 -7.1847   1.5144   2.3707    0.10

--link1--
%nproc=4
%mem=20000MB
#P b3lyp/STO-3G TD(NStates=6) SCFcyc=500 charge NoSymm

Gaussian template charges

 0 1
C    -4.041872   -0.525126    0.134878
C    -4.237312    0.909078   -0.031401
C    -3.005916    1.683573   -0.145249
C    -1.761354    1.108895   -0.099604
C    -1.590088   -0.307133    0.064959
C    -2.790153   -1.084358    0.178566
O    -5.378815    1.439276   -0.073635
C    -0.341773   -0.965051    0.120391
C     0.964558   -0.497037    0.041483
C     2.122082   -1.377028    0.124838
O     2.251439   -2.605141    0.267906
N     3.212196   -0.481958   -0.000733
C     2.694526    0.803569   -0.143611
N     1.392705    0.829876   -0.123309
C     3.564804    2.015397   -0.302731
C     4.589073   -0.914507    0.025710
H    -4.936731   -1.138355    0.223578
H    -3.118459    2.759239   -0.270573
H    -0.869220    1.721409   -0.188171
H    -2.687759   -2.163401    0.304472
H    -0.388201   -2.047730    0.249401
H     4.629691    1.761277   -0.291793
H     3.377193    2.734107    0.504776
H     3.345667    2.526531   -1.248526
H     4.570268   -2.000976    0.154672
H     5.142939   -0.467027    0.861936
H     5.111051   -0.676916   -0.910969

 -6.2941   4.2656   0.5712    0.10

--link1--
%nproc=4
%mem=20000MB
#P b3lyp/STO-3G TD(NStates=6) SCFcyc=500 charge NoSymm

Gaussian template charges

 0 1
C    -4.041872   -0.525126    0.134878
C    -4.237312    0.909078   -0.031401
C    -3.005916    1.683573   -0.145249
C    -1.761354    1.108895   -0.099604
C    -1.590088   -0.307133    0.064959
C    -2.790153   -1.084358    0.178566
O    -5.378815    1.439276   -0.073635
C    -0.341773   -0.965051    0.120391
C     0.964558   -0.497037    0.041483
C     2.122082   -1.377028    0.124838
O     2.251439   -2.605141    0.267906
N     3.212196   -0.481958   -0.000733
C     2.694526    0.803569   -0.143611
N     1.392705    0.829876   -0.123309
C     3.564804    2.015397   -0.302731
C     4.589073   -0.914507    0.025710
H    -4.936731   -1.138355    0.223578
H    -3.118459    2.759239   -0.270573
H    -0.869220    1.721409   -0.188171
H    -2.687759   -2.163401    0.304472
H    -0.388201   -2.047730    0.249401
H     4.629691    1.761277   -0.291793
H     3.377193    2.734107    0.504776
H     3.345667    2.526531   -1.248526
H     4.570268   -2.000976    0.154672
H     5.142939   -0.467027    0.861936
H     5.111051   -0.676916   -0.910969

 -8.3581   1.4559   0.5309    0.10

--link1--
%nproc=4
%mem=20000MB
#P b3lyp/STO-3G TD(NStates=6) SCFcyc=500 charge NoSymm

Gaussian template charges

 0 1
C    -4.041872   -0.525126    0.134878
C    -4.237312    0.909078   -0.031401
C    -3.005916    1.683573   -0.145249
C    -1.761354    1.108895   -0.099604
C    -1.590088   -0.307133    0.064959
C    -2.790153   -1.084358    0.178566
O    -5.378815    1.439276   -0.073635
C    -0.341773   -0.965051    0.120391
C     0.964558   -0.497037    0.041483
C     2.122082   -1.377028    0.124838
O     2.251439   -2.605141    0.267906
N     3.212196   -0.481958   -0.000733
C     2.694526    0.803569   -0.143611
N     1.392705    0.829876   -0.123309
C     3.564804    2.015397   -0.302731
C     4.589073   -0.914507    0.025710
H    -4.936731   -1.138355    0.223578
H    -3.118459    2.759239   -0.270573
H    -0.869220    1.721409   -0.188171
H    -2.687759   -2.163401    0.304472
H    -0.388201   -2.047730    0.249401
H     4.629691    1.761277   -0.291793
H     3.377193    2.734107    0.504776
H     3.345667    2.526531   -1.248526
H     4.570268   -2.000976    0.154672
H     5.142939   -0.467027    0.861936
H     5.111051   -0.676916   -0.910969

 -7.7879   3.2156  -0.6053    0.10

--link1--
%nproc=4
%mem=20000MB
#P b3lyp/STO-3G TD(NStates=6) SCFcyc=500 charge NoSymm

Gaussian template charges

 0 1
C    -4.041872   -0.525126    0.134878
C    -4.237312    0.909078   -0.031401
C    -3.005916    1.683573   -0.145249
C    -1.761354    1.108895   -0.099604
C    -1.590088   -0.307133    0.064959
C    -2.790153   -1.084358    0.178566
O    -5.378815    1.439276   -0.073635
C    -0.341773   -0.965051    0.120391
C     0.964558   -0.497037    0.041483
C     2.122082   -1.377028    0.124838
O     2.251439   -2.605141    0.267906
N     3.212196   -0.481958   -0.000733
C     2.694526    0.803569   -0.143611
N     1.392705    0.829876   -0.123309
C     3.564804    2.015397   -0.302731
C     4.589073   -0.914507    0.025710
H    -4.936731   -1.138355    0.223578
H    -3.118459    2.759239   -0.270573
H    -0.869220    1.721409   -0.188171
H    -2.687759   -2.163401    0.304472
H    -0.388201   -2.047730    0.249401
H     4.629691    1.761277   -0.291793
H     3.377193    2.734107    0.504776
H     3.345667    2.526531   -1.248526
H     4.570268   -2.000976    0.154672
H     5.142939   -0.467027    0.861936
H     5.111051   -0.676916   -0.910969

 -7.7985  -0.3198  -0.6143    0.10

