%nproc=4
%mem=20000MB
#P b3lyp/STO-3G TD(NStates=6) SCFcyc=500 charge NoSymm

Gaussian template charges

 0 1
C    -4.041872   -0.525126    0.134878
C    -4.237312    0.909078   -0.031401
C    -3.005916    1.683573   -0.145249
C    -1.761354    1.108895   -0.099604
C    -1.590088   -0.307133    0.064959
C    -2.790153   -1.084358    0.178566
O    -5.378815    1.439276   -0.073635
C    -0.341773   -0.965051    0.120391
C     0.964558   -0.497037    0.041483
C     2.122082   -1.377028    0.124838
O     2.251439   -2.605141    0.267906
N     3.212196   -0.481958   -0.000733
C     2.694526    0.803569   -0.143611
N     1.392705    0.829876   -0.123309
C     3.564804    2.015397   -0.302731
C     4.589073   -0.914507    0.025710
H    -4.936731   -1.138355    0.223578
H    -3.118459    2.759239   -0.270573
H    -0.869220    1.721409   -0.188171
H    -2.687759   -2.163401    0.304472
H    -0.388201   -2.047730    0.249401
H     4.629691    1.761277   -0.291793
H     3.377193    2.734107    0.504776
H     3.345667    2.526531   -1.248526
H     4.570268   -2.000976    0.154672
H     5.142939   -0.467027    0.861936
H     5.111051   -0.676916   -0.910969

 -4.9199  -3.7120   0.9303    0.10

--link1--
%nproc=4
%mem=20000MB
#P b3lyp/STO-3G TD(NStates=6) SCFcyc=500 charge NoSymm

Gaussian template charges

 0 1
C    -4.041872   -0.525126    0.134878
C    -4.237312    0.909078   -0.031401
C    -3.005916    1.683573   -0.145249
C    -1.761354    1.108895   -0.099604
C    -1.590088   -0.307133    0.064959
C    -2.790153   -1.084358    0.178566
O    -5.378815    1.439276   -0.073635
C    -0.341773   -0.965051    0.120391
C     0.964558   -0.497037    0.041483
C     2.122082   -1.377028    0.124838
O     2.251439   -2.605141    0.267906
N     3.212196   -0.481958   -0.000733
C     2.694526    0.803569   -0.143611
N     1.392705    0.829876   -0.123309
C     3.564804    2.015397   -0.302731
C     4.589073   -0.914507    0.025710
H    -4.936731   -1.138355    0.223578
H    -3.118459    2.759239   -0.270573
H    -0.869220    1.721409   -0.188171
H    -2.687759   -2.163401    0.304472
H    -0.388201   -2.047730    0.249401
H     4.629691    1.761277   -0.291793
H     3.377193    2.734107    0.504776
H     3.345667    2.526531   -1.248526
H     4.570268   -2.000976    0.154672
H     5.142939   -0.467027    0.861936
H     5.111051   -0.676916   -0.910969

 -5.6836  -3.4105   0.8693    0.10

--link1--
%nproc=4
%mem=20000MB
#P b3lyp/STO-3G TD(NStates=6) SCFcyc=500 charge NoSymm

Gaussian template charges

 0 1
C    -4.041872   -0.525126    0.134878
C    -4.237312    0.909078   -0.031401
C    -3.005916    1.683573   -0.145249
C    -1.761354    1.108895   -0.099604
C    -1.590088   -0.307133    0.064959
C    -2.790153   -1.084358    0.178566
O    -5.378815    1.439276   -0.073635
C    -0.341773   -0.965051    0.120391
C     0.964558   -0.497037    0.041483
C     2.122082   -1.377028    0.124838
O     2.251439   -2.605141    0.267906
N     3.212196   -0.481958   -0.000733
C     2.694526    0.803569   -0.143611
N     1.392705    0.829876   -0.123309
C     3.564804    2.015397   -0.302731
C     4.589073   -0.914507    0.025710
H    -4.936731   -1.138355    0.223578
H    -3.118459    2.759239   -0.270573
H    -0.869220    1.721409   -0.188171
H    -2.687759   -2.163401    0.304472
H    -0.388201   -2.047730    0.249401
H     4.629691    1.761277   -0.291793
H     3.377193    2.734107    0.504776
H     3.345667    2.526531   -1.248526
H     4.570268   -2.000976    0.154672
H     5.142939   -0.467027    0.861936
H     5.111051   -0.676916   -0.910969

 -6.3943  -2.6666  -1.0652    0.10

--link1--
%nproc=4
%mem=20000MB
#P b3lyp/STO-3G TD(NStates=6) SCFcyc=500 charge NoSymm

Gaussian template charges

 0 1
C    -4.041872   -0.525126    0.134878
C    -4.237312    0.909078   -0.031401
C    -3.005916    1.683573   -0.145249
C    -1.761354    1.108895   -0.099604
C    -1.590088   -0.307133    0.064959
C    -2.790153   -1.084358    0.178566
O    -5.378815    1.439276   -0.073635
C    -0.341773   -0.965051    0.120391
C     0.964558   -0.497037    0.041483
C     2.122082   -1.377028    0.124838
O     2.251439   -2.605141    0.267906
N     3.212196   -0.481958   -0.000733
C     2.694526    0.803569   -0.143611
N     1.392705    0.829876   -0.123309
C     3.564804    2.015397   -0.302731
C     4.589073   -0.914507    0.025710
H    -4.936731   -1.138355    0.223578
H    -3.118459    2.759239   -0.270573
H    -0.869220    1.721409   -0.188171
H    -2.687759   -2.163401    0.304472
H    -0.388201   -2.047730    0.249401
H     4.629691    1.761277   -0.291793
H     3.377193    2.734107    0.504776
H     3.345667    2.526531   -1.248526
H     4.570268   -2.000976    0.154672
H     5.142939   -0.467027    0.861936
H     5.111051   -0.676916   -0.910969

 -6.8644  -1.8017  -1.2665    0.10

--link1--
%nproc=4
%mem=20000MB
#P b3lyp/STO-3G TD(NStates=6) SCFcyc=500 charge NoSymm

Gaussian template charges

 0 1
C    -4.041872   -0.525126    0.134878
C    -4.237312    0.909078   -0.031401
C    -3.005916    1.683573   -0.145249
C    -1.761354    1.108895   -0.099604
C    -1.590088   -0.307133    0.064959
C    -2.790153   -1.084358    0.178566
O    -5.378815    1.439276   -0.073635
C    -0.341773   -0.965051    0.120391
C     0.964558   -0.497037    0.041483
C     2.122082   -1.377028    0.124838
O     2.251439   -2.605141    0.267906
N     3.212196   -0.481958   -0.000733
C     2.694526    0.803569   -0.143611
N     1.392705    0.829876   -0.123309
C     3.564804    2.015397   -0.302731
C     4.589073   -0.914507    0.025710
H    -4.936731   -1.138355    0.223578
H    -3.118459    2.759239   -0.270573
H    -0.869220    1.721409   -0.188171
H    -2.687759   -2.163401    0.304472
H    -0.388201   -2.047730    0.249401
H     4.629691    1.761277   -0.291793
H     3.377193    2.734107    0.504776
H     3.345667    2.526531   -1.248526
H     4.570268   -2.000976    0.154672
H     5.142939   -0.467027    0.861936
H     5.111051   -0.676916   -0.910969

 -4.9023  -1.1121  -3.1016    0.10

--link1--
%nproc=4
%mem=20000MB
#P b3lyp/STO-3G TD(NStates=6) SCFcyc=500 charge NoSymm

Gaussian template charges

 0 1
C    -4.041872   -0.525126    0.134878
C    -4.237312    0.909078   -0.031401
C    -3.005916    1.683573   -0.145249
C    -1.761354    1.108895   -0.099604
C    -1.590088   -0.307133    0.064959
C    -2.790153   -1.084358    0.178566
O    -5.378815    1.439276   -0.073635
C    -0.341773   -0.965051    0.120391
C     0.964558   -0.497037    0.041483
C     2.122082   -1.377028    0.124838
O     2.251439   -2.605141    0.267906
N     3.212196   -0.481958   -0.000733
C     2.694526    0.803569   -0.143611
N     1.392705    0.829876   -0.123309
C     3.564804    2.015397   -0.302731
C     4.589073   -0.914507    0.025710
H    -4.936731   -1.138355    0.223578
H    -3.118459    2.759239   -0.270573
H    -0.869220    1.721409   -0.188171
H    -2.687759   -2.163401    0.304472
H    -0.388201   -2.047730    0.249401
H     4.629691    1.761277   -0.291793
H     3.377193    2.734107    0.504776
H     3.345667    2.526531   -1.248526
H     4.570268   -2.000976    0.154672
H     5.142939   -0.467027    0.861936
H     5.111051   -0.676916   -0.910969

 -5.3559  -2.3155  -2.4396    0.10

--link1--
%nproc=4
%mem=20000MB
#P b3lyp/STO-3G TD(NStates=6) SCFcyc=500 charge NoSymm

Gaussian template charges

 0 1
C    -4.041872   -0.525126    0.134878
C    -4.237312    0.909078   -0.031401
C    -3.005916    1.683573   -0.145249
C    -1.761354    1.108895   -0.099604
C    -1.590088   -0.307133    0.064959
C    -2.790153   -1.084358    0.178566
O    -5.378815    1.439276   -0.073635
C    -0.341773   -0.965051    0.120391
C     0.964558   -0.497037    0.041483
C     2.122082   -1.377028    0.124838
O     2.251439   -2.605141    0.267906
N     3.212196   -0.481958   -0.000733
C     2.694526    0.803569   -0.143611
N     1.392705    0.829876   -0.123309
C     3.564804    2.015397   -0.302731
C     4.589073   -0.914507    0.025710
H    -4.936731   -1.138355    0.223578
H    -3.118459    2.759239   -0.270573
H    -0.869220    1.721409   -0.188171
H    -2.687759   -2.163401    0.304472
H    -0.388201   -2.047730    0.249401
H     4.629691    1.761277   -0.291793
H     3.377193    2.734107    0.504776
H     3.345667    2.526531   -1.248526
H     4.570268   -2.000976    0.154672
H     5.142939   -0.467027    0.861936
H     5.111051   -0.676916   -0.910969

 -5.8308  -1.7785  -2.4707    0.10

--link1--
%nproc=4
%mem=20000MB
#P b3lyp/STO-3G TD(NStates=6) SCFcyc=500 charge NoSymm

Gaussian template charges

 0 1
C    -4.041872   -0.525126    0.134878
C    -4.237312    0.909078   -0.031401
C    -3.005916    1.683573   -0.145249
C    -1.761354    1.108895   -0.099604
C    -1.590088   -0.307133    0.064959
C    -2.790153   -1.084358    0.178566
O    -5.378815    1.439276   -0.073635
C    -0.341773   -0.965051    0.120391
C     0.964558   -0.497037    0.041483
C     2.122082   -1.377028    0.124838
O     2.251439   -2.605141    0.267906
N     3.212196   -0.481958   -0.000733
C     2.694526    0.803569   -0.143611
N     1.392705    0.829876   -0.123309
C     3.564804    2.015397   -0.302731
C     4.589073   -0.914507    0.025710
H    -4.936731   -1.138355    0.223578
H    -3.118459    2.759239   -0.270573
H    -0.869220    1.721409   -0.188171
H    -2.687759   -2.163401    0.304472
H    -0.388201   -2.047730    0.249401
H     4.629691    1.761277   -0.291793
H     3.377193    2.734107    0.504776
H     3.345667    2.526531   -1.248526
H     4.570268   -2.000976    0.154672
H     5.142939   -0.467027    0.861936
H     5.111051   -0.676916   -0.910969

 -3.5480  -1.3162  -3.1347    0.10

--link1--
%nproc=4
%mem=20000MB
#P b3lyp/STO-3G TD(NStates=6) SCFcyc=500 charge NoSymm

Gaussian template charges

 0 1
C    -4.041872   -0.525126    0.134878
C    -4.237312    0.909078   -0.031401
C    -3.005916    1.683573   -0.145249
C    -1.761354    1.108895   -0.099604
C    -1.590088   -0.307133    0.064959
C    -2.790153   -1.084358    0.178566
O    -5.378815    1.439276   -0.073635
C    -0.341773   -0.965051    0.120391
C     0.964558   -0.497037    0.041483
C     2.122082   -1.377028    0.124838
O     2.251439   -2.605141    0.267906
N     3.212196   -0.481958   -0.000733
C     2.694526    0.803569   -0.143611
N     1.392705    0.829876   -0.123309
C     3.564804    2.015397   -0.302731
C     4.589073   -0.914507    0.025710
H    -4.936731   -1.138355    0.223578
H    -3.118459    2.759239   -0.270573
H    -0.869220    1.721409   -0.188171
H    -2.687759   -2.163401    0.304472
H    -0.388201   -2.047730    0.249401
H     4.629691    1.761277   -0.291793
H     3.377193    2.734107    0.504776
H     3.345667    2.526531   -1.248526
H     4.570268   -2.000976    0.154672
H     5.142939   -0.467027    0.861936
H     5.111051   -0.676916   -0.910969

 -4.3601   0.8073   3.3649    0.10

--link1--
%nproc=4
%mem=20000MB
#P b3lyp/STO-3G TD(NStates=6) SCFcyc=500 charge NoSymm

Gaussian template charges

 0 1
C    -4.041872   -0.525126    0.134878
C    -4.237312    0.909078   -0.031401
C    -3.005916    1.683573   -0.145249
C    -1.761354    1.108895   -0.099604
C    -1.590088   -0.307133    0.064959
C    -2.790153   -1.084358    0.178566
O    -5.378815    1.439276   -0.073635
C    -0.341773   -0.965051    0.120391
C     0.964558   -0.497037    0.041483
C     2.122082   -1.377028    0.124838
O     2.251439   -2.605141    0.267906
N     3.212196   -0.481958   -0.000733
C     2.694526    0.803569   -0.143611
N     1.392705    0.829876   -0.123309
C     3.564804    2.015397   -0.302731
C     4.589073   -0.914507    0.025710
H    -4.936731   -1.138355    0.223578
H    -3.118459    2.759239   -0.270573
H    -0.869220    1.721409   -0.188171
H    -2.687759   -2.163401    0.304472
H    -0.388201   -2.047730    0.249401
H     4.629691    1.761277   -0.291793
H     3.377193    2.734107    0.504776
H     3.345667    2.526531   -1.248526
H     4.570268   -2.000976    0.154672
H     5.142939   -0.467027    0.861936
H     5.111051   -0.676916   -0.910969

 -4.1724   0.7741  -3.4281    0.10

--link1--
%nproc=4
%mem=20000MB
#P b3lyp/STO-3G TD(NStates=6) SCFcyc=500 charge NoSymm

Gaussian template charges

 0 1
C    -4.041872   -0.525126    0.134878
C    -4.237312    0.909078   -0.031401
C    -3.005916    1.683573   -0.145249
C    -1.761354    1.108895   -0.099604
C    -1.590088   -0.307133    0.064959
C    -2.790153   -1.084358    0.178566
O    -5.378815    1.439276   -0.073635
C    -0.341773   -0.965051    0.120391
C     0.964558   -0.497037    0.041483
C     2.122082   -1.377028    0.124838
O     2.251439   -2.605141    0.267906
N     3.212196   -0.481958   -0.000733
C     2.694526    0.803569   -0.143611
N     1.392705    0.829876   -0.123309
C     3.564804    2.015397   -0.302731
C     4.589073   -0.914507    0.025710
H    -4.936731   -1.138355    0.223578
H    -3.118459    2.759239   -0.270573
H    -0.869220    1.721409   -0.188171
H    -2.687759   -2.163401    0.304472
H    -0.388201   -2.047730    0.249401
H     4.629691    1.761277   -0.291793
H     3.377193    2.734107    0.504776
H     3.345667    2.526531   -1.248526
H     4.570268   -2.000976    0.154672
H     5.142939   -0.467027    0.861936
H     5.111051   -0.676916   -0.910969

 -4.3601   0.8073   3.3649    0.10

--link1--
%nproc=4
%mem=20000MB
#P b3lyp/STO-3G TD(NStates=6) SCFcyc=500 charge NoSymm

Gaussian template charges

 0 1
C    -4.041872   -0.525126    0.134878
C    -4.237312    0.909078   -0.031401
C    -3.005916    1.683573   -0.145249
C    -1.761354    1.108895   -0.099604
C    -1.590088   -0.307133    0.064959
C    -2.790153   -1.084358    0.178566
O    -5.378815    1.439276   -0.073635
C    -0.341773   -0.965051    0.120391
C     0.964558   -0.497037    0.041483
C     2.122082   -1.377028    0.124838
O     2.251439   -2.605141    0.267906
N     3.212196   -0.481958   -0.000733
C     2.694526    0.803569   -0.143611
N     1.392705    0.829876   -0.123309
C     3.564804    2.015397   -0.302731
C     4.589073   -0.914507    0.025710
H    -4.936731   -1.138355    0.223578
H    -3.118459    2.759239   -0.270573
H    -0.869220    1.721409   -0.188171
H    -2.687759   -2.163401    0.304472
H    -0.388201   -2.047730    0.249401
H     4.629691    1.761277   -0.291793
H     3.377193    2.734107    0.504776
H     3.345667    2.526531   -1.248526
H     4.570268   -2.000976    0.154672
H     5.142939   -0.467027    0.861936
H     5.111051   -0.676916   -0.910969

 -3.8784   1.8131   3.2265    0.10

