%nproc=4
%mem=20000MB
#P b3lyp/STO-3G TD(NStates=6) SCFcyc=500 charge NoSymm

Gaussian template charges

 0 1
C    -4.041872   -0.525126    0.134878
C    -4.237312    0.909078   -0.031401
C    -3.005916    1.683573   -0.145249
C    -1.761354    1.108895   -0.099604
C    -1.590088   -0.307133    0.064959
C    -2.790153   -1.084358    0.178566
O    -5.378815    1.439276   -0.073635
C    -0.341773   -0.965051    0.120391
C     0.964558   -0.497037    0.041483
C     2.122082   -1.377028    0.124838
O     2.251439   -2.605141    0.267906
N     3.212196   -0.481958   -0.000733
C     2.694526    0.803569   -0.143611
N     1.392705    0.829876   -0.123309
C     3.564804    2.015397   -0.302731
C     4.589073   -0.914507    0.025710
H    -4.936731   -1.138355    0.223578
H    -3.118459    2.759239   -0.270573
H    -0.869220    1.721409   -0.188171
H    -2.687759   -2.163401    0.304472
H    -0.388201   -2.047730    0.249401
H     4.629691    1.761277   -0.291793
H     3.377193    2.734107    0.504776
H     3.345667    2.526531   -1.248526
H     4.570268   -2.000976    0.154672
H     5.142939   -0.467027    0.861936
H     5.111051   -0.676916   -0.910969

 -4.5591  -1.8674  -2.9458    0.10

--link1--
%nproc=4
%mem=20000MB
#P b3lyp/STO-3G TD(NStates=6) SCFcyc=500 charge NoSymm

Gaussian template charges

 0 1
C    -4.041872   -0.525126    0.134878
C    -4.237312    0.909078   -0.031401
C    -3.005916    1.683573   -0.145249
C    -1.761354    1.108895   -0.099604
C    -1.590088   -0.307133    0.064959
C    -2.790153   -1.084358    0.178566
O    -5.378815    1.439276   -0.073635
C    -0.341773   -0.965051    0.120391
C     0.964558   -0.497037    0.041483
C     2.122082   -1.377028    0.124838
O     2.251439   -2.605141    0.267906
N     3.212196   -0.481958   -0.000733
C     2.694526    0.803569   -0.143611
N     1.392705    0.829876   -0.123309
C     3.564804    2.015397   -0.302731
C     4.589073   -0.914507    0.025710
H    -4.936731   -1.138355    0.223578
H    -3.118459    2.759239   -0.270573
H    -0.869220    1.721409   -0.188171
H    -2.687759   -2.163401    0.304472
H    -0.388201   -2.047730    0.249401
H     4.629691    1.761277   -0.291793
H     3.377193    2.734107    0.504776
H     3.345667    2.526531   -1.248526
H     4.570268   -2.000976    0.154672
H     5.142939   -0.467027    0.861936
H     5.111051   -0.676916   -0.910969

 -6.4615  -1.5339   2.3000    0.10

--link1--
%nproc=4
%mem=20000MB
#P b3lyp/STO-3G TD(NStates=6) SCFcyc=500 charge NoSymm

Gaussian template charges

 0 1
C    -4.041872   -0.525126    0.134878
C    -4.237312    0.909078   -0.031401
C    -3.005916    1.683573   -0.145249
C    -1.761354    1.108895   -0.099604
C    -1.590088   -0.307133    0.064959
C    -2.790153   -1.084358    0.178566
O    -5.378815    1.439276   -0.073635
C    -0.341773   -0.965051    0.120391
C     0.964558   -0.497037    0.041483
C     2.122082   -1.377028    0.124838
O     2.251439   -2.605141    0.267906
N     3.212196   -0.481958   -0.000733
C     2.694526    0.803569   -0.143611
N     1.392705    0.829876   -0.123309
C     3.564804    2.015397   -0.302731
C     4.589073   -0.914507    0.025710
H    -4.936731   -1.138355    0.223578
H    -3.118459    2.759239   -0.270573
H    -0.869220    1.721409   -0.188171
H    -2.687759   -2.163401    0.304472
H    -0.388201   -2.047730    0.249401
H     4.629691    1.761277   -0.291793
H     3.377193    2.734107    0.504776
H     3.345667    2.526531   -1.248526
H     4.570268   -2.000976    0.154672
H     5.142939   -0.467027    0.861936
H     5.111051   -0.676916   -0.910969

 -6.5552  -0.7267   2.4158    0.10

--link1--
%nproc=4
%mem=20000MB
#P b3lyp/STO-3G TD(NStates=6) SCFcyc=500 charge NoSymm

Gaussian template charges

 0 1
C    -4.041872   -0.525126    0.134878
C    -4.237312    0.909078   -0.031401
C    -3.005916    1.683573   -0.145249
C    -1.761354    1.108895   -0.099604
C    -1.590088   -0.307133    0.064959
C    -2.790153   -1.084358    0.178566
O    -5.378815    1.439276   -0.073635
C    -0.341773   -0.965051    0.120391
C     0.964558   -0.497037    0.041483
C     2.122082   -1.377028    0.124838
O     2.251439   -2.605141    0.267906
N     3.212196   -0.481958   -0.000733
C     2.694526    0.803569   -0.143611
N     1.392705    0.829876   -0.123309
C     3.564804    2.015397   -0.302731
C     4.589073   -0.914507    0.025710
H    -4.936731   -1.138355    0.223578
H    -3.118459    2.759239   -0.270573
H    -0.869220    1.721409   -0.188171
H    -2.687759   -2.163401    0.304472
H    -0.388201   -2.047730    0.249401
H     4.629691    1.761277   -0.291793
H     3.377193    2.734107    0.504776
H     3.345667    2.526531   -1.248526
H     4.570268   -2.000976    0.154672
H     5.142939   -0.467027    0.861936
H     5.111051   -0.676916   -0.910969

 -6.4482   0.1127   2.4507    0.10

--link1--
%nproc=4
%mem=20000MB
#P b3lyp/STO-3G TD(NStates=6) SCFcyc=500 charge NoSymm

Gaussian template charges

 0 1
C    -4.041872   -0.525126    0.134878
C    -4.237312    0.909078   -0.031401
C    -3.005916    1.683573   -0.145249
C    -1.761354    1.108895   -0.099604
C    -1.590088   -0.307133    0.064959
C    -2.790153   -1.084358    0.178566
O    -5.378815    1.439276   -0.073635
C    -0.341773   -0.965051    0.120391
C     0.964558   -0.497037    0.041483
C     2.122082   -1.377028    0.124838
O     2.251439   -2.605141    0.267906
N     3.212196   -0.481958   -0.000733
C     2.694526    0.803569   -0.143611
N     1.392705    0.829876   -0.123309
C     3.564804    2.015397   -0.302731
C     4.589073   -0.914507    0.025710
H    -4.936731   -1.138355    0.223578
H    -3.118459    2.759239   -0.270573
H    -0.869220    1.721409   -0.188171
H    -2.687759   -2.163401    0.304472
H    -0.388201   -2.047730    0.249401
H     4.629691    1.761277   -0.291793
H     3.377193    2.734107    0.504776
H     3.345667    2.526531   -1.248526
H     4.570268   -2.000976    0.154672
H     5.142939   -0.467027    0.861936
H     5.111051   -0.676916   -0.910969

 -5.9680  -1.1564   2.8646    0.10

--link1--
%nproc=4
%mem=20000MB
#P b3lyp/STO-3G TD(NStates=6) SCFcyc=500 charge NoSymm

Gaussian template charges

 0 1
C    -4.041872   -0.525126    0.134878
C    -4.237312    0.909078   -0.031401
C    -3.005916    1.683573   -0.145249
C    -1.761354    1.108895   -0.099604
C    -1.590088   -0.307133    0.064959
C    -2.790153   -1.084358    0.178566
O    -5.378815    1.439276   -0.073635
C    -0.341773   -0.965051    0.120391
C     0.964558   -0.497037    0.041483
C     2.122082   -1.377028    0.124838
O     2.251439   -2.605141    0.267906
N     3.212196   -0.481958   -0.000733
C     2.694526    0.803569   -0.143611
N     1.392705    0.829876   -0.123309
C     3.564804    2.015397   -0.302731
C     4.589073   -0.914507    0.025710
H    -4.936731   -1.138355    0.223578
H    -3.118459    2.759239   -0.270573
H    -0.869220    1.721409   -0.188171
H    -2.687759   -2.163401    0.304472
H    -0.388201   -2.047730    0.249401
H     4.629691    1.761277   -0.291793
H     3.377193    2.734107    0.504776
H     3.345667    2.526531   -1.248526
H     4.570268   -2.000976    0.154672
H     5.142939   -0.467027    0.861936
H     5.111051   -0.676916   -0.910969

 -5.9617  -0.3544   2.9358    0.10

--link1--
%nproc=4
%mem=20000MB
#P b3lyp/STO-3G TD(NStates=6) SCFcyc=500 charge NoSymm

Gaussian template charges

 0 1
C    -4.041872   -0.525126    0.134878
C    -4.237312    0.909078   -0.031401
C    -3.005916    1.683573   -0.145249
C    -1.761354    1.108895   -0.099604
C    -1.590088   -0.307133    0.064959
C    -2.790153   -1.084358    0.178566
O    -5.378815    1.439276   -0.073635
C    -0.341773   -0.965051    0.120391
C     0.964558   -0.497037    0.041483
C     2.122082   -1.377028    0.124838
O     2.251439   -2.605141    0.267906
N     3.212196   -0.481958   -0.000733
C     2.694526    0.803569   -0.143611
N     1.392705    0.829876   -0.123309
C     3.564804    2.015397   -0.302731
C     4.589073   -0.914507    0.025710
H    -4.936731   -1.138355    0.223578
H    -3.118459    2.759239   -0.270573
H    -0.869220    1.721409   -0.188171
H    -2.687759   -2.163401    0.304472
H    -0.388201   -2.047730    0.249401
H     4.629691    1.761277   -0.291793
H     3.377193    2.734107    0.504776
H     3.345667    2.526531   -1.248526
H     4.570268   -2.000976    0.154672
H     5.142939   -0.467027    0.861936
H     5.111051   -0.676916   -0.910969

 -5.3025  -2.6237   2.4943    0.10

--link1--
%nproc=4
%mem=20000MB
#P b3lyp/STO-3G TD(NStates=6) SCFcyc=500 charge NoSymm

Gaussian template charges

 0 1
C    -4.041872   -0.525126    0.134878
C    -4.237312    0.909078   -0.031401
C    -3.005916    1.683573   -0.145249
C    -1.761354    1.108895   -0.099604
C    -1.590088   -0.307133    0.064959
C    -2.790153   -1.084358    0.178566
O    -5.378815    1.439276   -0.073635
C    -0.341773   -0.965051    0.120391
C     0.964558   -0.497037    0.041483
C     2.122082   -1.377028    0.124838
O     2.251439   -2.605141    0.267906
N     3.212196   -0.481958   -0.000733
C     2.694526    0.803569   -0.143611
N     1.392705    0.829876   -0.123309
C     3.564804    2.015397   -0.302731
C     4.589073   -0.914507    0.025710
H    -4.936731   -1.138355    0.223578
H    -3.118459    2.759239   -0.270573
H    -0.869220    1.721409   -0.188171
H    -2.687759   -2.163401    0.304472
H    -0.388201   -2.047730    0.249401
H     4.629691    1.761277   -0.291793
H     3.377193    2.734107    0.504776
H     3.345667    2.526531   -1.248526
H     4.570268   -2.000976    0.154672
H     5.142939   -0.467027    0.861936
H     5.111051   -0.676916   -0.910969

 -4.8762  -2.3336   2.8905    0.10

--link1--
%nproc=4
%mem=20000MB
#P b3lyp/STO-3G TD(NStates=6) SCFcyc=500 charge NoSymm

Gaussian template charges

 0 1
C    -4.041872   -0.525126    0.134878
C    -4.237312    0.909078   -0.031401
C    -3.005916    1.683573   -0.145249
C    -1.761354    1.108895   -0.099604
C    -1.590088   -0.307133    0.064959
C    -2.790153   -1.084358    0.178566
O    -5.378815    1.439276   -0.073635
C    -0.341773   -0.965051    0.120391
C     0.964558   -0.497037    0.041483
C     2.122082   -1.377028    0.124838
O     2.251439   -2.605141    0.267906
N     3.212196   -0.481958   -0.000733
C     2.694526    0.803569   -0.143611
N     1.392705    0.829876   -0.123309
C     3.564804    2.015397   -0.302731
C     4.589073   -0.914507    0.025710
H    -4.936731   -1.138355    0.223578
H    -3.118459    2.759239   -0.270573
H    -0.869220    1.721409   -0.188171
H    -2.687759   -2.163401    0.304472
H    -0.388201   -2.047730    0.249401
H     4.629691    1.761277   -0.291793
H     3.377193    2.734107    0.504776
H     3.345667    2.526531   -1.248526
H     4.570268   -2.000976    0.154672
H     5.142939   -0.467027    0.861936
H     5.111051   -0.676916   -0.910969

 -4.3371  -2.0968   3.1353    0.10

--link1--
%nproc=4
%mem=20000MB
#P b3lyp/STO-3G TD(NStates=6) SCFcyc=500 charge NoSymm

Gaussian template charges

 0 1
C    -4.041872   -0.525126    0.134878
C    -4.237312    0.909078   -0.031401
C    -3.005916    1.683573   -0.145249
C    -1.761354    1.108895   -0.099604
C    -1.590088   -0.307133    0.064959
C    -2.790153   -1.084358    0.178566
O    -5.378815    1.439276   -0.073635
C    -0.341773   -0.965051    0.120391
C     0.964558   -0.497037    0.041483
C     2.122082   -1.377028    0.124838
O     2.251439   -2.605141    0.267906
N     3.212196   -0.481958   -0.000733
C     2.694526    0.803569   -0.143611
N     1.392705    0.829876   -0.123309
C     3.564804    2.015397   -0.302731
C     4.589073   -0.914507    0.025710
H    -4.936731   -1.138355    0.223578
H    -3.118459    2.759239   -0.270573
H    -0.869220    1.721409   -0.188171
H    -2.687759   -2.163401    0.304472
H    -0.388201   -2.047730    0.249401
H     4.629691    1.761277   -0.291793
H     3.377193    2.734107    0.504776
H     3.345667    2.526531   -1.248526
H     4.570268   -2.000976    0.154672
H     5.142939   -0.467027    0.861936
H     5.111051   -0.676916   -0.910969

 -7.3885  -1.1236   0.1821    0.10

--link1--
%nproc=4
%mem=20000MB
#P b3lyp/STO-3G TD(NStates=6) SCFcyc=500 charge NoSymm

Gaussian template charges

 0 1
C    -4.041872   -0.525126    0.134878
C    -4.237312    0.909078   -0.031401
C    -3.005916    1.683573   -0.145249
C    -1.761354    1.108895   -0.099604
C    -1.590088   -0.307133    0.064959
C    -2.790153   -1.084358    0.178566
O    -5.378815    1.439276   -0.073635
C    -0.341773   -0.965051    0.120391
C     0.964558   -0.497037    0.041483
C     2.122082   -1.377028    0.124838
O     2.251439   -2.605141    0.267906
N     3.212196   -0.481958   -0.000733
C     2.694526    0.803569   -0.143611
N     1.392705    0.829876   -0.123309
C     3.564804    2.015397   -0.302731
C     4.589073   -0.914507    0.025710
H    -4.936731   -1.138355    0.223578
H    -3.118459    2.759239   -0.270573
H    -0.869220    1.721409   -0.188171
H    -2.687759   -2.163401    0.304472
H    -0.388201   -2.047730    0.249401
H     4.629691    1.761277   -0.291793
H     3.377193    2.734107    0.504776
H     3.345667    2.526531   -1.248526
H     4.570268   -2.000976    0.154672
H     5.142939   -0.467027    0.861936
H     5.111051   -0.676916   -0.910969

 -7.2935  -1.0087   1.0026    0.10

--link1--
%nproc=4
%mem=20000MB
#P b3lyp/STO-3G TD(NStates=6) SCFcyc=500 charge NoSymm

Gaussian template charges

 0 1
C    -4.041872   -0.525126    0.134878
C    -4.237312    0.909078   -0.031401
C    -3.005916    1.683573   -0.145249
C    -1.761354    1.108895   -0.099604
C    -1.590088   -0.307133    0.064959
C    -2.790153   -1.084358    0.178566
O    -5.378815    1.439276   -0.073635
C    -0.341773   -0.965051    0.120391
C     0.964558   -0.497037    0.041483
C     2.122082   -1.377028    0.124838
O     2.251439   -2.605141    0.267906
N     3.212196   -0.481958   -0.000733
C     2.694526    0.803569   -0.143611
N     1.392705    0.829876   -0.123309
C     3.564804    2.015397   -0.302731
C     4.589073   -0.914507    0.025710
H    -4.936731   -1.138355    0.223578
H    -3.118459    2.759239   -0.270573
H    -0.869220    1.721409   -0.188171
H    -2.687759   -2.163401    0.304472
H    -0.388201   -2.047730    0.249401
H     4.629691    1.761277   -0.291793
H     3.377193    2.734107    0.504776
H     3.345667    2.526531   -1.248526
H     4.570268   -2.000976    0.154672
H     5.142939   -0.467027    0.861936
H     5.111051   -0.676916   -0.910969

 -5.2329  -3.7097   0.1304    0.10

